certificates/rado_a14_c82_N29.cnf
c Rad2 upper bound instance: x1 + 14*x2 - x3 = 82, interval [1,29]
p cnf 29 120
1 3 6 0
-1 -3 -6 0
1 7 17 0
-1 -7 -17 0
2 4 6 0
-2 -4 -6 0
2 7 18 0
-2 -7 -18 0
3 5 6 0
-3 -5 -6 0
3 7 19 0
-3 -7 -19 0
4 6 0
-4 -6 0
4 7 20 0
-4 -7 -20 0
5 6 7 0
-5 -6 -7 0
5 7 21 0
-5 -7 -21 0
6 8 0
-6 -8 0
6 7 22 0
-6 -7 -22 0
6 7 9 0
-6 -7 -9 0
7 23 0
-7 -23 0
6 8 10 0
-6 -8 -10 0
7 8 24 0
-7 -8 -24 0
6 9 11 0
-6 -9 -11 0
7 9 25 0
-7 -9 -25 0
6 10 12 0
-6 -10 -12 0
7 10 26 0
-7 -10 -26 0
6 11 13 0
-6 -11 -13 0
7 11 27 0
-7 -11 -27 0
6 12 14 0
-6 -12 -14 0
7 12 28 0
-7 -12 -28 0
1 5 13 0
-1 -5 -13 0
6 13 15 0
-6 -13 -15 0
7 13 29 0
-7 -13 -29 0
2 5 14 0
-2 -5 -14 0
6 14 16 0
-6 -14 -16 0
3 5 15 0
-3 -5 -15 0
6 15 17 0
-6 -15 -17 0
4 5 16 0
-4 -5 -16 0
6 16 18 0
-6 -16 -18 0
5 17 0
-5 -17 0
6 17 19 0
-6 -17 -19 0
5 6 18 0
-5 -6 -18 0
6 18 20 0
-6 -18 -20 0
5 7 19 0
-5 -7 -19 0
6 19 21 0
-6 -19 -21 0
5 8 20 0
-5 -8 -20 0
6 20 22 0
-6 -20 -22 0
5 9 21 0
-5 -9 -21 0
6 21 23 0
-6 -21 -23 0
5 10 22 0
-5 -10 -22 0
6 22 24 0
-6 -22 -24 0
5 11 23 0
-5 -11 -23 0
6 23 25 0
-6 -23 -25 0
5 12 24 0
-5 -12 -24 0
6 24 26 0
-6 -24 -26 0
5 13 25 0
-5 -13 -25 0
6 25 27 0
-6 -25 -27 0
5 14 26 0
-5 -14 -26 0
6 26 28 0
-6 -26 -28 0
1 4 27 0
-1 -4 -27 0
5 15 27 0
-5 -15 -27 0
6 27 29 0
-6 -27 -29 0
2 4 28 0
-2 -4 -28 0
5 16 28 0
-5 -16 -28 0
3 4 29 0
-3 -4 -29 0
5 17 29 0
-5 -17 -29 0
