certificates/rado_a14_c82_N29.drat
-27 -29 0
d -27 -6 -29 0
3 6 0
d 3 1 6 0
6 -29 0
-7 -29 0
-29 0
-3 -6 0
d -1 -3 -6 0
-6 0
4 0
8 0
27 0
3 0
-1 0
7 0
-19 0
-20 0
-23 0
-24 0
-11 0
21 0
17 0
22 0
18 0
25 0
26 0
13 0
5 0
9 0
0
